tsp_instances/TSP20/instance116.tsp
NODE_COORD_SECTION
0 10 159
1 88 35
2 168 62
3 179 174
4 143 102
5 35 57
6 95 80
7 38 181
8 180 71
9 84 85
10 60 49
11 94 105
12 145 158
13 56 20
14 21 11
15 197 31
16 129 189
17 120 102
18 14 169
19 102 31
