tsp_instances/TSP20/instance116.opt.tour
TOUR_SECTION
1
6
15
14
11
2
20
7
10
12
18
5
3
16
9
4
13
17
8
19
-1